
******************************************************************************
This program contains Ipopt, a library for large-scale nonlinear optimization.
 Ipopt is released as open source code under the Eclipse Public License (EPL).
         For more information visit http://projects.coin-or.org/Ipopt

This version of Ipopt was compiled from source code available at
    https://github.com/IDAES/Ipopt as part of the Institute for the Design of
    Advanced Energy Systems Process Systems Engineering Framework (IDAES PSE
    Framework) Copyright (c) 2018-2019. See https://github.com/IDAES/idaes-pse.

This version of Ipopt was compiled using HSL, a collection of Fortran codes
    for large-scale scientific computation.  All technical papers, sales and
    publicity material resulting from use of the HSL codes within IPOPT must
    contain the following acknowledgement:
        HSL, a collection of Fortran codes for large-scale scientific
        computation. See http://www.hsl.rl.ac.uk.
******************************************************************************

This is Ipopt version 3.13.2, running with linear solver ma27.

Number of nonzeros in equality constraint Jacobian...:      958
Number of nonzeros in inequality constraint Jacobian.:        0
Number of nonzeros in Lagrangian Hessian.............:      832

Total number of variables............................:      416
                     variables with only lower bounds:      128
                variables with lower and upper bounds:      224
                     variables with only upper bounds:        0
Total number of equality constraints.................:      415
Total number of inequality constraints...............:        0
        inequality constraints with only lower bounds:        0
   inequality constraints with lower and upper bounds:        0
        inequality constraints with only upper bounds:        0

iter    objective    inf_pr   inf_du lg(mu)  ||d||  lg(rg) alpha_du alpha_pr  ls
   0  0.0000000e+00 7.18e-01 1.78e-15  -1.0 0.00e+00    -  0.00e+00 0.00e+00   0
   1  1.0887345e-01 5.39e-01 6.72e+03  -1.0 1.17e+05    -  3.79e-01 2.11e-01h  1
   2  1.1158046e-01 5.37e-01 6.70e+03  -1.0 7.22e+04    -  8.18e-01 3.33e-03h  1
   3  2.4462053e+00 2.60e-01 2.64e+04  -1.0 1.77e+05    -  6.98e-01 5.14e-01h  1
   4  9.4400782e+00 2.18e-02 2.48e+04  -1.0 1.02e+05    -  8.19e-01 9.90e-01h  1
   5  1.0052664e+01 1.57e-03 2.52e+02  -1.0 7.88e+03    -  9.83e-01 9.90e-01h  1
   6  1.0070759e+01 2.69e-05 3.82e+00  -1.0 2.78e+02    -  9.90e-01 9.90e-01h  1
   7  1.0164025e+01 4.78e-06 1.55e+03  -1.0 1.58e+03    -  9.90e-01 9.90e-01h  1
   8  1.0138220e+01 3.98e-06 5.65e+07  -2.5 1.85e+03    -  9.97e-01 2.33e-01f  3
   9  1.0063650e+01 2.69e-06 4.33e+05  -2.5 1.25e+03    -  1.00e+00 9.97e-01h  1
iter    objective    inf_pr   inf_du lg(mu)  ||d||  lg(rg) alpha_du alpha_pr  ls
  10  1.0063717e+01 7.61e-09 9.65e+07  -2.5 1.59e+00    -  1.00e+00 9.97e-01h  1
  11  1.0063717e+01 1.59e-10 3.41e+10  -2.5 4.47e-03    -  1.00e+00 9.97e-01h  1
In iteration 11, 32 Slacks too small, adjusting variable bounds
  12  1.0063717e+01 8.61e-11 1.21e+13  -2.5 1.27e-05    -  1.00e+00 9.97e-01h  1
  13  1.0063717e+01 5.22e-11 1.54e-01  -2.5 2.18e-07    -  1.00e+00 1.00e+00h  1
  14  1.0060880e+01 8.99e-12 3.24e+10  -9.0 4.78e+01    -  1.00e+00 9.97e-01F  1
  15  1.0060880e+01 2.47e-11 5.49e-06  -9.0 2.00e-05    -  1.00e+00 1.00e+00H  1

Number of Iterations....: 15

                                   (scaled)                 (unscaled)
Objective...............:   1.0060880088452370e+01    1.0060880088452370e+01
Dual infeasibility......:   5.4892152547836304e-06    5.4892152547836304e-06
Constraint violation....:   2.4711344082106734e-11    2.4711344082106734e-11
Complementarity.........:   9.0909303147174173e-10    9.0909303147174173e-10
Overall NLP error.......:   2.1857072783080246e-09    5.4892152547836304e-06


Number of objective function evaluations             = 22
Number of objective gradient evaluations             = 16
Number of equality constraint evaluations            = 22
Number of inequality constraint evaluations          = 0
Number of equality constraint Jacobian evaluations   = 16
Number of inequality constraint Jacobian evaluations = 0
Number of Lagrangian Hessian evaluations             = 15
Total CPU secs in IPOPT (w/o function evaluations)   =      0.025
Total CPU secs in NLP function evaluations           =      0.265

EXIT: Optimal Solution Found.
